<number of tasks>
21

<cycle time>
14

<task times>
1 4
2 3
3 9
4 5
5 9
6 4
7 8
8 7
9 5
10 1
11 3
12 1
13 5
14 3
15 5
16 3
17 13
18 5
19 2
20 3
21 7

<task process alternatives>
1: 4,15 ; 5,8
2: 3,15 ; 4,8
3: 8,15 ; 11,8
4: 4,15 ; 6,8
5: 8,15 ; 11,8
6: 4,15 ; 5,8
7: 7,15 ; 10,8
8: 6,15 ; 9,8
9: 4,15 ; 6,8
10: 1,15 ; 2,8
11: 3,15 ; 4,8
12: 1,15 ; 2,8
13: 4,15 ; 6,8
14: 3,15 ; 4,8
15: 4,15 ; 6,8
16: 3,15 ; 4,8
17: 11,15 ; 16,8
18: 4,15 ; 6,8
19: 2,15 ; 3,8
20: 3,15 ; 4,8
21: 6,15 ; 9,8

<incompatible tasks>
4,1
18,19
7,8

<precedence relations>
3,4
16,17
5,7
4,21
14,19
8,9
9,11
1,3
10,15
13,17
6,8
18,19
4,5
5,6
12,15
9,10
1,2
9,13
17,20
15,16
9,12
11,15
13,18
2,21
15,18
7,8
7,14

<number of task attributes>
1

<task attribute values>
1,1:70
2,1:22
4,1:69
5,1:28
6,1:81
7,1:1
8,1:80
9,1:9
10,1:10
11,1:75
13,1:20
14,1:9
15,1:4
16,1:43
17,1:83
18,1:89
19,1:1
21,1:2

<attribute bounds per station>
1:100

<linked tasks>
19,20

<optimal SALBP-1 value>
8

<rand seed>
236278236

<end>
